
Log started (V11.0.0) Mon Apr 14 22:43:56 2008

Tried aggregator 1 time.
Reduced MIP has 550 rows, 25001 columns, and 50050 nonzeros.
Presolve time =    0.19 sec.
Clique table members: 500.
MIP emphasis: balance optimality and feasibility.
MIP search method: dynamic search.
Parallel mode: none, using 1 thread.
Root relaxation solution time =    1.03 sec.

        Nodes                                         Cuts/
   Node  Left     Objective  IInf  Best Integer     Best Node    ItCnt     Gap

*     0+    0                        24670.0000       26.5046     1522   99.89%
*     0+    0                           31.0000       26.5046     1522   14.50%
      0     0       27.0000    61       31.0000      Fract: 6     1538   12.90%
*     0+    0                           30.0000       27.0000     1538   10.00%

Repeating presolve.
Tried aggregator 1 time.
MIP Presolve eliminated 0 rows and 17681 columns.
Reduced MIP has 550 rows, 7320 columns, and 14688 nonzeros.
Tried aggregator 1 time.
Represolve time =    0.42 sec.
Clique table members: 1078.
MIP emphasis: balance optimality and feasibility.
MIP search method: dynamic search.
Parallel mode: none, using 1 thread.
Root relaxation solution time =    0.26 sec.

        Nodes                                         Cuts/
   Node  Left     Objective  IInf  Best Integer     Best Node    ItCnt     Gap

      0     0       27.0000    90       30.0000       27.0000     1004   10.00%
      0     2       27.0000    90       30.0000       27.0000     1004   10.00%
*    30+   30                           29.0000       27.0000     3145    6.90%
    100    97       28.0000    46       29.0000       27.0000     5629    6.90%
    200   195       28.0000    57       29.0000       27.0000     9023    6.90%
    300   281       28.0000    64       29.0000       27.0000    15962    6.90%
    400   377       28.0000    75       29.0000       27.0000    22522    6.90%
    500   464       28.0000    45       29.0000       27.0000    29828    6.90%
*   514+  317                           28.0000       27.0000    32237    3.57%
    600   331       27.0000    79       28.0000       27.0000    42345    3.57%
    700   325       27.0000   120       28.0000       27.0000    63216    3.57%
    800   314       27.0000   106       28.0000       27.0000    92262    3.57%
    900   278       27.0000   152       28.0000       27.0000   146926    3.57%
   1000   308       27.0000    88       28.0000       27.0000   181841    3.57%
Elapsed time = 124.97 sec. (tree size =  4.09 MB, solutions = 5)
   1100   366       27.0000   140       28.0000       27.0000   229019    3.57%
   1200   436       27.0000   174       28.0000       27.0000   271220    3.57%
   1300   494    infeasible             28.0000       27.0000   318241    3.57%
   1400   576       27.0000    64       28.0000       27.0000   351280    3.57%
   1500   628       27.0000   201       28.0000       27.0000   402537    3.57%
   1600   694       27.0000   120       28.0000       27.0000   454425    3.57%
   1700   700       27.0000   161       28.0000       27.0000   567812    3.57%
   1800   738       27.0000   219       28.0000       27.0000   646333    3.57%
   1900   756       27.0000   218       28.0000       27.0000   763361    3.57%
   2000   774       27.0000   142       28.0000       27.0000   882663    3.57%
Elapsed time = 683.73 sec. (tree size = 15.09 MB, solutions = 5)
   2100   814       27.0000   188       28.0000       27.0000   976918    3.57%
   2200   862       27.0000   270       28.0000       27.0000  1059746    3.57%
   2300   874       27.0000   200       28.0000       27.0000  1177601    3.57%
   2400   922       27.0000   209       28.0000       27.0000  1251172    3.57%
   2500   990       27.0000   213       28.0000       27.0000  1305465    3.57%
   2600  1054       27.0000    44       28.0000       27.0000  1358623    3.57%
*  2614+    1                           27.0000       27.0000  1366615    0.00%

Cover cuts applied:  1980
Mixed integer rounding cuts applied:  20
Zero-half cuts applied:  2
Gomory fractional cuts applied:  4

Solution pool: 6 solutions saved.

MIP - Integer optimal solution:  Objective = 2.7000000000e+001
Solution time = 1198.16 sec.  Iterations = 1366615  Nodes = 2614


Incumbent solution
Variable Name           Solution Value
Cmax                         27.000000
X_1_11                        1.000000
X_2_50                        1.000000
X_3_43                        1.000000
X_4_44                        1.000000
X_5_44                        1.000000
X_6_20                        1.000000
X_7_47                        1.000000
X_8_8                         1.000000
X_9_42                        1.000000
X_10_37                       1.000000
X_11_33                       1.000000
X_12_1                        1.000000
X_13_28                       1.000000
X_14_21                       1.000000
X_15_15                       1.000000
X_16_22                       1.000000
X_17_2                        1.000000
X_18_18                       1.000000
X_19_10                       1.000000
X_20_26                       1.000000
X_21_37                       1.000000
X_22_21                       1.000000
X_23_10                       1.000000
X_24_23                       1.000000
X_25_50                       1.000000
X_26_12                       1.000000
X_27_16                       1.000000
X_28_49                       1.000000
X_29_20                       1.000000
X_30_37                       1.000000
X_31_23                       1.000000
X_32_8                        1.000000
X_33_38                       1.000000
X_34_14                       1.000000
X_35_28                       1.000000
X_36_28                       1.000000
X_37_48                       1.000000
X_38_18                       1.000000
X_39_49                       1.000000
X_40_36                       1.000000
X_41_42                       1.000000
X_42_4                        1.000000
X_43_41                       1.000000
X_44_11                       1.000000
X_45_8                        1.000000
X_46_6                        1.000000
X_47_19                       1.000000
X_48_35                       1.000000
X_49_4                        1.000000
X_50_18                       1.000000
X_51_36                       1.000000
X_52_7                        1.000000
X_53_43                       1.000000
X_54_50                       1.000000
X_55_7                        1.000000
X_56_18                       1.000000
X_57_36                       1.000000
X_58_15                       1.000000
X_59_23                       1.000000
X_60_47                       1.000000
X_61_7                        1.000000
X_62_16                       1.000000
X_63_12                       1.000000
X_64_24                       1.000000
X_65_6                        1.000000
X_66_30                       1.000000
X_67_47                       1.000000
X_68_33                       1.000000
X_69_49                       1.000000
X_70_7                        1.000000
X_71_46                       1.000000
X_72_15                       1.000000
X_73_16                       1.000000
X_74_43                       1.000000
X_75_15                       1.000000
X_76_39                       1.000000
X_77_24                       1.000000
X_78_7                        1.000000
X_79_45                       1.000000
X_80_12                       1.000000
X_81_44                       1.000000
X_82_23                       1.000000
X_83_13                       1.000000
X_84_6                        1.000000
X_85_22                       1.000000
X_86_3                        1.000000
X_87_27                       1.000000
X_88_18                       1.000000
X_89_33                       1.000000
X_90_37                       1.000000
X_91_38                       1.000000
X_92_31                       1.000000
X_93_26                       1.000000
X_94_28                       1.000000
X_95_3                        1.000000
X_96_30                       1.000000
X_97_45                       1.000000
X_98_46                       1.000000
X_99_23                       1.000000
X_100_33                      1.000000
X_101_20                      1.000000
X_102_20                      1.000000
X_103_32                      1.000000
X_104_7                       1.000000
X_105_46                      1.000000
X_106_18                      1.000000
X_107_33                      1.000000
X_108_10                      1.000000
X_109_15                      1.000000
X_110_10                      1.000000
X_111_30                      1.000000
X_112_21                      1.000000
X_113_47                      1.000000
X_114_3                       1.000000
X_115_41                      1.000000
X_116_41                      1.000000
X_117_16                      1.000000
X_118_22                      1.000000
X_119_2                       1.000000
X_120_24                      1.000000
X_121_13                      1.000000
X_122_28                      1.000000
X_123_31                      1.000000
X_124_39                      1.000000
X_125_29                      1.000000
X_126_29                      1.000000
X_127_23                      1.000000
X_128_21                      1.000000
X_129_11                      1.000000
X_130_46                      1.000000
X_131_29                      1.000000
X_132_50                      1.000000
X_133_22                      1.000000
X_134_27                      1.000000
X_135_14                      1.000000
X_136_1                       1.000000
X_137_43                      1.000000
X_138_7                       1.000000
X_139_42                      1.000000
X_140_4                       1.000000
X_141_16                      1.000000
X_142_47                      1.000000
X_143_44                      1.000000
X_144_46                      1.000000
X_145_9                       1.000000
X_146_47                      1.000000
X_147_2                       1.000000
X_148_21                      1.000000
X_149_47                      1.000000
X_150_13                      1.000000
X_151_1                       1.000000
X_152_20                      1.000000
X_153_5                       1.000000
X_154_26                      1.000000
X_155_1                       1.000000
X_156_11                      1.000000
X_157_32                      1.000000
X_158_45                      1.000000
X_159_31                      1.000000
X_160_27                      1.000000
X_161_27                      1.000000
X_162_41                      1.000000
X_163_25                      1.000000
X_164_25                      1.000000
X_165_46                      1.000000
X_166_43                      1.000000
X_167_24                      1.000000
X_168_39                      1.000000
X_169_34                      1.000000
X_170_34                      1.000000
X_171_45                      1.000000
X_172_40                      1.000000
X_173_31                      1.000000
X_174_30                      1.000000
X_175_42                      1.000000
X_176_2                       1.000000
X_177_44                      1.000000
X_178_44                      1.000000
X_179_40                      1.000000
X_180_45                      1.000000
X_181_13                      1.000000
X_182_30                      1.000000
X_183_3                       1.000000
X_184_8                       1.000000
X_185_29                      1.000000
X_186_19                      1.000000
X_187_17                      1.000000
X_188_29                      1.000000
X_189_14                      1.000000
X_190_39                      1.000000
X_191_43                      1.000000
X_192_42                      1.000000
X_193_6                       1.000000
X_194_37                      1.000000
X_195_6                       1.000000
X_196_48                      1.000000
X_197_13                      1.000000
X_198_18                      1.000000
X_199_17                      1.000000
X_200_47                      1.000000
X_201_7                       1.000000
X_202_5                       1.000000
X_203_40                      1.000000
X_204_49                      1.000000
X_205_17                      1.000000
X_206_24                      1.000000
X_207_2                       1.000000
X_208_11                      1.000000
X_209_49                      1.000000
X_210_1                       1.000000
X_211_20                      1.000000
X_212_13                      1.000000
X_213_40                      1.000000
X_214_24                      1.000000
X_215_37                      1.000000
X_216_25                      1.000000
X_217_35                      1.000000
X_218_47                      1.000000
X_219_38                      1.000000
X_220_31                      1.000000
X_221_13                      1.000000
X_222_26                      1.000000
X_223_7                       1.000000
X_224_39                      1.000000
X_225_13                      1.000000
X_226_39                      1.000000
X_227_21                      1.000000
X_228_3                       1.000000
X_229_44                      1.000000
X_230_45                      1.000000
X_231_35                      1.000000
X_232_27                      1.000000
X_233_25                      1.000000
X_234_38                      1.000000
X_235_27                      1.000000
X_236_12                      1.000000
X_237_12                      1.000000
X_238_50                      1.000000
X_239_28                      1.000000
X_240_31                      1.000000
X_241_35                      1.000000
X_242_20                      1.000000
X_243_29                      1.000000
X_244_33                      1.000000
X_245_26                      1.000000
X_246_33                      1.000000
X_247_19                      1.000000
X_248_35                      1.000000
X_249_37                      1.000000
X_250_12                      1.000000
X_251_50                      1.000000
X_252_14                      1.000000
X_253_8                       1.000000
X_254_17                      1.000000
X_255_14                      1.000000
X_256_18                      1.000000
X_257_44                      1.000000
X_258_27                      1.000000
X_259_6                       1.000000
X_260_11                      1.000000
X_261_42                      1.000000
X_262_30                      1.000000
X_263_36                      1.000000
X_264_2                       1.000000
X_265_47                      1.000000
X_266_21                      1.000000
X_267_16                      1.000000
X_268_6                       1.000000
X_269_32                      1.000000
X_270_4                       1.000000
X_271_33                      1.000000
X_272_34                      1.000000
X_273_10                      1.000000
X_274_48                      1.000000
X_275_45                      1.000000
X_276_37                      1.000000
X_277_34                      1.000000
X_278_29                      1.000000
X_279_4                       1.000000
X_280_2                       1.000000
X_281_5                       1.000000
X_282_44                      1.000000
X_283_48                      1.000000
X_284_7                       1.000000
X_285_22                      1.000000
X_286_28                      1.000000
X_287_38                      1.000000
X_288_46                      1.000000
X_289_26                      1.000000
X_290_13                      1.000000
X_291_9                       1.000000
X_292_22                      1.000000
X_293_27                      1.000000
X_294_18                      1.000000
X_295_40                      1.000000
X_296_7                       1.000000
X_297_11                      1.000000
X_298_5                       1.000000
X_299_8                       1.000000
X_300_32                      1.000000
X_301_2                       1.000000
X_302_23                      1.000000
X_303_1                       1.000000
X_304_1                       1.000000
X_305_46                      1.000000
X_306_34                      1.000000
X_307_18                      1.000000
X_308_22                      1.000000
X_309_48                      1.000000
X_310_43                      1.000000
X_311_45                      1.000000
X_312_19                      1.000000
X_313_50                      1.000000
X_314_32                      1.000000
X_315_13                      1.000000
X_316_34                      1.000000
X_317_10                      1.000000
X_318_12                      1.000000
X_319_33                      1.000000
X_320_41                      1.000000
X_321_41                      1.000000
X_322_4                       1.000000
X_323_35                      1.000000
X_324_45                      1.000000
X_325_3                       1.000000
X_326_2                       1.000000
X_327_43                      1.000000
X_328_26                      1.000000
X_329_21                      1.000000
X_330_3                       1.000000
X_331_1                       1.000000
X_332_27                      1.000000
X_333_9                       1.000000
X_334_25                      1.000000
X_335_19                      1.000000
X_336_1                       1.000000
X_337_45                      1.000000
X_338_26                      1.000000
X_339_47                      1.000000
X_340_4                       1.000000
X_341_34                      1.000000
X_342_26                      1.000000
X_343_34                      1.000000
X_344_14                      1.000000
X_345_37                      1.000000
X_346_35                      1.000000
X_347_15                      1.000000
X_348_42                      1.000000
X_349_3                       1.000000
X_350_6                       1.000000
X_351_24                      1.000000
X_352_50                      1.000000
X_353_37                      1.000000
X_354_12                      1.000000
X_355_4                       1.000000
X_356_27                      1.000000
X_357_14                      1.000000
X_358_25                      1.000000
X_359_18                      1.000000
X_360_12                      1.000000
X_361_9                       1.000000
X_362_44                      1.000000
X_363_14                      1.000000
X_364_29                      1.000000
X_365_22                      1.000000
X_366_6                       1.000000
X_367_47                      1.000000
X_368_22                      1.000000
X_369_31                      1.000000
X_370_50                      1.000000
X_371_41                      1.000000
X_372_50                      1.000000
X_373_44                      1.000000
X_374_17                      1.000000
X_375_41                      1.000000
X_376_9                       1.000000
X_377_38                      1.000000
X_378_9                       1.000000
X_379_2                       1.000000
X_380_42                      1.000000
X_381_15                      1.000000
X_382_41                      1.000000
X_383_36                      1.000000
X_384_22                      1.000000
X_385_15                      1.000000
X_386_48                      1.000000
X_387_33                      1.000000
X_388_5                       1.000000
X_389_40                      1.000000
X_390_38                      1.000000
X_391_35                      1.000000
X_392_10                      1.000000
X_393_49                      1.000000
X_394_12                      1.000000
X_395_49                      1.000000
X_396_3                       1.000000
X_397_21                      1.000000
X_398_39                      1.000000
X_399_9                       1.000000
X_400_22                      1.000000
X_401_6                       1.000000
X_402_32                      1.000000
X_403_11                      1.000000
X_404_50                      1.000000
X_405_3                       1.000000
X_406_32                      1.000000
X_407_19                      1.000000
X_408_23                      1.000000
X_409_43                      1.000000
X_410_5                       1.000000
X_411_32                      1.000000
X_412_26                      1.000000
X_413_30                      1.000000
X_414_24                      1.000000
X_415_39                      1.000000
X_416_4                       1.000000
X_417_28                      1.000000
X_418_32                      1.000000
X_419_10                      1.000000
X_420_40                      1.000000
X_421_7                       1.000000
X_422_48                      1.000000
X_423_22                      1.000000
X_424_42                      1.000000
X_425_13                      1.000000
X_426_20                      1.000000
X_427_16                      1.000000
X_428_38                      1.000000
X_429_33                      1.000000
X_430_36                      1.000000
X_431_49                      1.000000
X_432_42                      1.000000
X_433_25                      1.000000
X_434_39                      1.000000
X_435_22                      1.000000
X_436_25                      1.000000
X_437_10                      1.000000
X_438_24                      1.000000
X_439_35                      1.000000
X_440_7                       1.000000
X_441_23                      1.000000
X_442_34                      1.000000
X_443_16                      1.000000
X_444_46                      1.000000
X_445_40                      1.000000
X_446_29                      1.000000
X_447_30                      1.000000
X_448_36                      1.000000
X_449_11                      1.000000
X_450_21                      1.000000
X_451_15                      1.000000
X_452_37                      1.000000
X_453_44                      1.000000
X_454_20                      1.000000
X_455_5                       1.000000
X_456_2                       1.000000
X_457_32                      1.000000
X_458_50                      1.000000
X_459_14                      1.000000
X_460_28                      1.000000
X_461_42                      1.000000
X_462_47                      1.000000
X_463_28                      1.000000
X_464_48                      1.000000
X_465_2                       1.000000
X_466_9                       1.000000
X_467_9                       1.000000
X_468_19                      1.000000
X_469_16                      1.000000
X_470_9                       1.000000
X_471_34                      1.000000
X_472_14                      1.000000
X_473_11                      1.000000
X_474_44                      1.000000
X_475_7                       1.000000
X_476_21                      1.000000
X_477_20                      1.000000
X_478_38                      1.000000
X_479_31                      1.000000
X_480_41                      1.000000
X_481_13                      1.000000
X_482_49                      1.000000
X_483_46                      1.000000
X_484_27                      1.000000
X_485_35                      1.000000
X_486_11                      1.000000
X_487_33                      1.000000
X_488_50                      1.000000
X_489_46                      1.000000
X_490_16                      1.000000
X_491_1                       1.000000
X_492_5                       1.000000
X_493_27                      1.000000
X_494_10                      1.000000
X_495_22                      1.000000
X_496_19                      1.000000
X_497_30                      1.000000
X_498_5                       1.000000
X_499_35                      1.000000
X_500_4                       1.000000
All other variables in the range 1-25001 are 0.
